Traveling Salesman Problem/TSP_generados/Aleatorio1621103440_14.tsp
NAME: Aleatorio1621103440_14.tsp
COMMENT: Randomly generated scenario
TYPE: TSP
DIMENSION: 14
EDGE_WEIGHT_TYPE: ATT
NODE_COORD_SECTION
1 23.34 41.36
2 15.99 3.8
3 38.95 12.55
4 47.29 44.85
5 44.98 9.29
6 20.15 26.78
7 3.88 39.25
8 4.64 41.61
9 24.86 28.37
10 19.38 10.53
11 27.43 5.17
12 31.69 20.61
13 4.3 26.32
14 13.09 11.33
