Traveling Salesman Problem/TSP_generados/Aleatorio1621103440_14.opt.tour
NAME: Aleatorio1621103440_14.opt.tour
COMMENT: Optimal solution for Aleatorio1621103440_14 (182.59376484479307)
TYPE: TOUR
DIMENSION: 14
TOUR_SECTION
1 4 9 6 12 3 5 11 10 2 14 13 7 8
-1
EOF
